DIMACS_lns/graph-1000-615.col
p edge 1000 1832
e 1 173
e 1 602
e 1 56
e 1 19
e 2 107
e 2 412
e 2 579
e 3 699
e 3 317
e 3 744
e 3 153
e 3 21
e 3 933
e 3 641
e 3 717
e 4 520
e 4 906
e 4 384
e 4 304
e 4 535
e 4 538
e 4 699
e 4 805
e 5 659
e 5 971
e 5 268
e 5 958
e 5 623
e 6 12
e 6 132
e 6 881
e 6 890
e 6 452
e 7 173
e 7 498
e 7 744
e 7 280
e 8 65
e 8 884
e 8 443
e 8 415
e 8 15
e 9 519
e 9 527
e 9 891
e 9 777
e 9 980
e 10 333
e 10 495
e 10 779
e 10 558
e 10 123
e 11 342
e 11 245
e 11 188
e 12 992
e 12 550
e 12 999
e 12 96
e 12 329
e 12 85
e 12 789
e 12 283
e 13 919
e 13 459
e 13 56
e 13 899
e 13 170
e 13 946
e 14 771
e 14 118
e 14 311
e 14 375
e 15 336
e 15 438
e 16 908
e 16 478
e 16 580
e 16 712
e 17 745
e 17 320
e 17 76
e 17 889
e 17 672
e 17 219
e 17 451
e 18 269
e 18 580
e 18 138
e 18 221
e 18 945
e 18 262
e 18 676
e 19 308
e 19 931
e 21 819
e 21 565
e 21 309
e 23 591
e 23 504
e 23 936
e 24 570
e 24 872
e 24 576
e 24 553
e 24 465
e 25 908
e 25 700
e 25 777
e 26 97
e 26 755
e 26 436
e 26 116
e 26 579
e 27 66
e 27 171
e 27 949
e 27 204
e 27 266
e 27 756
e 28 326
e 28 383
e 28 325
e 28 570
e 28 210
e 28 248
e 29 437
e 29 531
e 29 602
e 29 295
e 31 524
e 31 134
e 31 889
e 31 254
e 31 710
e 32 77
e 32 734
e 32 379
e 32 588
e 32 371
e 32 843
e 32 510
e 33 524
e 33 498
e 33 533
e 33 441
e 33 550
e 33 982
e 33 341
e 36 789
e 36 337
e 36 760
e 36 978
e 36 433
e 37 834
e 37 456
e 37 962
e 38 205
e 38 731
e 38 721
e 38 523
e 38 601
e 38 255
e 39 956
e 39 385
e 39 140
e 40 841
e 40 233
e 40 396
e 41 539
e 41 761
e 41 695
e 41 666
e 41 89
e 41 286
e 44 306
e 44 835
e 44 710
e 44 823
e 44 301
e 47 179
e 47 291
e 47 629
e 47 626
e 47 872
e 47 884
e 49 470
e 49 975
e 49 421
e 49 899
e 49 342
e 50 821
e 50 733
e 50 349
e 50 464
e 50 379
e 50 343
e 51 425
e 51 577
e 51 498
e 51 455
e 51 392
e 51 849
e 51 90
e 52 337
e 52 132
e 52 278
e 52 461
e 52 907
e 53 481
e 53 949
e 53 614
e 54 166
e 54 694
e 54 271
e 54 524
e 56 165
e 56 625
e 57 248
e 57 841
e 57 578
e 58 644
e 58 155
e 58 331
e 58 561
e 60 707
e 60 236
e 60 794
e 61 644
e 61 369
e 61 144
e 61 643
e 61 504
e 61 235
e 61 460
e 61 269
e 61 591
e 62 721
e 62 124
e 62 743
e 62 933
e 63 752
e 63 910
e 63 266
e 63 545
e 64 203
e 64 479
e 64 304
e 65 656
e 65 963
e 65 312
e 66 898
e 66 333
e 66 366
e 66 743
e 66 109
e 66 945
e 67 779
e 67 490
e 67 453
e 67 458
e 67 674
e 67 220
e 68 381
e 68 973
e 68 742
e 68 631
e 68 337
e 68 129
e 69 717
e 69 873
e 69 778
e 69 734
e 70 315
e 70 816
e 70 326
e 70 103
e 71 396
e 71 916
e 71 559
e 71 657
e 72 929
e 72 149
e 72 931
e 75 103
e 75 937
e 75 988
e 75 351
e 75 389
e 75 145
e 75 981
e 76 364
e 76 439
e 76 162
e 76 579
e 76 808
e 77 372
e 77 791
e 77 842
e 77 697
e 77 661
e 78 799
e 78 945
e 78 651
e 81 855
e 81 587
e 81 850
e 84 211
e 84 656
e 84 732
e 84 752
e 84 570
e 84 472
e 84 304
e 85 527
e 85 408
e 85 985
e 86 685
e 86 765
e 86 188
e 86 721
e 86 396
e 89 707
e 89 327
e 89 758
e 89 252
e 89 955
e 89 793
e 90 100
e 90 403
e 90 886
e 90 389
e 94 791
e 94 809
e 94 250
e 94 955
e 94 766
e 94 797
e 95 323
e 95 596
e 95 866
e 96 240
e 96 377
e 96 717
e 96 292
e 96 199
e 97 897
e 97 613
e 97 617
e 97 312
e 98 742
e 98 782
e 98 470
e 98 901
e 98 992
e 98 267
e 100 560
e 100 856
e 101 960
e 101 386
e 101 351
e 101 863
e 103 178
e 103 784
e 103 619
e 103 718
e 104 530
e 104 129
e 104 884
e 106 855
e 106 555
e 106 383
e 107 207
e 107 173
e 107 938
e 107 317
e 107 136
e 108 903
e 108 931
e 108 675
e 109 597
e 109 772
e 109 449
e 110 465
e 110 393
e 110 773
e 110 710
e 110 657
e 111 679
e 111 812
e 111 650
e 112 954
e 112 366
e 112 407
e 112 770
e 114 365
e 114 292
e 114 997
e 114 174
e 115 716
e 115 118
e 115 211
e 115 513
e 116 364
e 116 740
e 116 731
e 116 454
e 117 852
e 117 630
e 117 761
e 117 278
e 117 671
e 118 872
e 118 892
e 118 123
e 118 542
e 118 955
e 119 620
e 119 925
e 119 283
e 122 432
e 122 194
e 122 619
e 123 649
e 124 777
e 124 808
e 127 385
e 127 449
e 127 328
e 127 582
e 128 220
e 128 933
e 128 826
e 128 364
e 129 530
e 129 566
e 130 906
e 130 911
e 130 519
e 130 221
e 130 394
e 130 193
e 130 281
e 130 559
e 130 842
e 132 820
e 132 1000
e 132 500
e 133 452
e 133 975
e 133 689
e 133 298
e 133 241
e 134 394
e 134 347
e 134 561
e 134 292
e 135 890
e 135 173
e 135 458
e 136 447
e 136 413
e 136 837
e 137 809
e 137 524
e 137 615
e 138 685
e 138 722
e 138 573
e 138 869
e 139 285
e 139 165
e 139 651
e 139 534
e 139 303
e 139 436
e 139 883
e 139 497
e 140 699
e 140 749
e 140 146
e 140 303
e 140 514
e 141 540
e 141 804
e 141 389
e 144 527
e 144 601
e 145 933
e 145 410
e 145 992
e 146 602
e 146 763
e 146 407
e 146 403
e 147 487
e 147 180
e 147 364
e 147 882
e 147 952
e 148 460
e 148 712
e 148 592
e 148 664
e 149 545
e 149 709
e 151 408
e 151 425
e 151 920
e 151 189
e 151 518
e 152 357
e 152 933
e 152 812
e 153 699
e 153 534
e 155 270
e 155 722
e 157 531
e 157 251
e 157 461
e 157 186
e 160 748
e 160 450
e 160 600
e 160 820
e 161 576
e 161 200
e 161 559
e 161 252
e 161 517
e 162 955
e 162 398
e 162 790
e 162 873
e 162 757
e 162 273
e 162 632
e 163 864
e 163 967
e 163 337
e 165 882
e 165 218
e 165 381
e 165 236
e 165 712
e 165 403
e 165 597
e 165 988
e 166 538
e 166 876
e 168 207
e 168 664
e 168 260
e 168 266
e 169 738
e 169 171
e 169 957
e 170 312
e 170 560
e 170 357
e 170 588
e 170 626
e 170 510
e 170 596
e 171 313
e 171 872
e 171 949
e 171 700
e 172 180
e 172 260
e 172 816
e 173 697
e 173 900
e 174 209
e 174 888
e 174 822
e 174 688
e 174 886
e 176 441
e 176 978
e 176 942
e 177 597
e 177 294
e 177 267
e 177 665
e 178 305
e 178 672
e 178 947
e 179 616
e 179 697
e 179 311
e 180 909
e 180 316
e 180 716
e 182 671
e 182 782
e 182 664
e 183 946
e 183 226
e 183 863
e 183 414
e 184 303
e 184 427
e 184 731
e 186 822
e 186 759
e 187 399
e 187 770
e 187 195
e 187 806
e 187 842
e 188 890
e 188 737
e 188 524
e 188 710
e 189 221
e 189 679
e 190 231
e 190 469
e 190 571
e 190 327
e 190 314
e 190 611
e 190 459
e 190 679
e 190 335
e 190 913
e 191 788
e 191 636
e 191 706
e 191 235
e 192 854
e 192 280
e 192 387
e 192 851
e 192 606
e 192 405
e 193 358
e 193 387
e 193 462
e 193 950
e 193 628
e 193 303
e 194 325
e 194 315
e 194 918
e 194 929
e 194 217
e 194 389
e 194 199
e 195 794
e 195 262
e 195 246
e 195 932
e 196 240
e 196 311
e 196 550
e 196 761
e 196 889
e 196 838
e 197 606
e 197 694
e 197 821
e 199 224
e 199 270
e 199 365
e 200 402
e 200 401
e 200 297
e 200 555
e 201 995
e 201 706
e 201 786
e 202 411
e 202 688
e 202 710
e 202 901
e 202 369
e 203 337
e 203 506
e 203 645
e 203 342
e 203 229
e 203 444
e 204 905
e 204 700
e 205 959
e 205 514
e 207 754
e 207 477
e 207 774
e 208 464
e 208 367
e 208 932
e 208 605
e 208 375
e 209 411
e 209 765
e 209 437
e 210 620
e 210 468
e 210 690
e 210 630
e 211 651
e 211 297
e 211 561
e 214 400
e 214 795
e 214 279
e 214 444
e 215 311
e 215 799
e 215 974
e 215 540
e 215 625
e 215 805
e 217 793
e 217 942
e 218 347
e 218 565
e 219 520
e 219 886
e 219 384
e 220 685
e 220 880
e 220 436
e 220 375
e 221 891
e 221 674
e 223 629
e 223 984
e 223 370
e 224 538
e 224 456
e 226 578
e 226 725
e 227 535
e 227 998
e 227 850
e 227 866
e 227 532
e 229 478
e 229 433
e 229 825
e 229 883
e 230 832
e 230 402
e 230 667
e 231 984
e 231 433
e 231 327
e 231 717
e 233 320
e 233 411
e 233 669
e 233 800
e 233 304
e 234 795
e 234 586
e 234 959
e 235 379
e 235 263
e 235 261
e 236 911
e 236 520
e 236 617
e 236 896
e 240 368
e 240 781
e 240 440
e 240 776
e 240 725
e 240 849
e 240 659
e 240 521
e 241 737
e 241 954
e 241 734
e 241 469
e 241 778
e 241 908
e 241 663
e 241 406
e 242 901
e 242 922
e 242 711
e 243 538
e 243 931
e 243 304
e 244 515
e 244 455
e 244 769
e 244 626
e 244 717
e 245 287
e 245 545
e 245 630
e 245 470
e 246 927
e 246 281
e 246 702
e 246 260
e 248 436
e 248 263
e 249 698
e 249 883
e 249 942
e 250 821
e 250 643
e 250 301
e 250 541
e 250 661
e 250 694
e 250 675
e 251 796
e 251 373
e 251 883
e 251 478
e 251 855
e 252 929
e 252 814
e 252 974
e 252 547
e 254 934
e 254 651
e 254 478
e 254 255
e 255 270
e 255 816
e 255 957
e 255 523
e 257 308
e 257 444
e 257 658
e 257 553
e 257 791
e 257 644
e 258 840
e 258 814
e 258 846
e 258 948
e 258 688
e 258 751
e 258 736
e 260 398
e 260 986
e 260 710
e 260 918
e 260 421
e 261 682
e 261 743
e 261 981
e 261 470
e 262 353
e 262 797
e 262 472
e 262 337
e 263 376
e 265 816
e 265 336
e 265 567
e 266 847
e 267 277
e 267 334
e 267 794
e 267 852
e 268 927
e 268 669
e 268 673
e 269 428
e 269 403
e 270 532
e 271 301
e 271 880
e 271 596
e 271 614
e 271 539
e 271 316
e 271 458
e 271 535
e 271 690
e 271 943
e 271 665
e 273 327
e 273 745
e 273 669
e 275 763
e 275 996
e 275 935
e 277 429
e 277 809
e 278 806
e 278 837
e 278 873
e 279 838
e 279 934
e 280 998
e 280 736
e 280 859
e 280 920
e 280 697
e 280 913
e 280 981
e 280 358
e 280 478
e 281 397
e 281 285
e 282 524
e 282 656
e 282 554
e 283 533
e 283 977
e 283 475
e 283 757
e 284 363
e 284 412
e 284 456
e 284 659
e 285 598
e 286 577
e 286 591
e 287 823
e 287 510
e 288 585
e 288 874
e 288 437
e 291 976
e 291 938
e 291 339
e 292 841
e 294 361
e 294 835
e 294 695
e 295 540
e 295 864
e 297 805
e 297 357
e 297 854
e 298 851
e 298 454
e 298 999
e 299 352
e 299 741
e 299 331
e 299 468
e 301 643
e 301 774
e 303 755
e 303 542
e 303 980
e 303 984
e 303 804
e 304 923
e 304 615
e 305 410
e 305 549
e 305 856
e 306 495
e 306 750
e 306 636
e 306 869
e 307 768
e 307 383
e 307 820
e 307 478
e 308 849
e 308 506
e 308 700
e 309 966
e 309 721
e 309 415
e 309 999
e 311 896
e 312 736
e 312 487
e 312 641
e 313 628
e 313 943
e 313 355
e 313 387
e 313 783
e 313 613
e 314 607
e 314 901
e 314 478
e 314 758
e 315 864
e 315 963
e 315 705
e 315 974
e 315 518
e 315 656
e 316 623
e 316 506
e 316 400
e 317 648
e 317 856
e 318 880
e 318 519
e 318 679
e 318 648
e 320 820
e 320 908
e 320 897
e 321 410
e 321 733
e 321 476
e 323 596
e 323 399
e 323 329
e 324 614
e 324 618
e 324 960
e 325 886
e 326 962
e 326 741
e 326 908
e 327 436
e 327 679
e 327 360
e 327 666
e 328 924
e 328 702
e 328 855
e 328 679
e 328 433
e 329 742
e 331 722
e 333 838
e 333 491
e 333 574
e 334 923
e 334 540
e 335 618
e 335 992
e 336 618
e 336 591
e 337 433
e 337 725
e 337 575
e 337 625
e 337 585
e 337 352
e 339 571
e 339 581
e 339 602
e 339 891
e 341 376
e 341 798
e 341 698
e 341 907
e 341 959
e 342 652
e 342 459
e 343 838
e 343 804
e 343 576
e 343 911
e 345 562
e 345 906
e 345 902
e 345 775
e 346 773
e 346 623
e 346 907
e 346 406
e 347 711
e 349 879
e 349 363
e 349 682
e 351 534
e 351 774
e 351 892
e 352 369
e 352 973
e 352 398
e 353 577
e 353 432
e 355 611
e 355 475
e 357 484
e 357 600
e 358 709
e 358 699
e 358 501
e 360 607
e 360 398
e 361 438
e 361 922
e 362 756
e 362 826
e 362 763
e 362 943
e 363 966
e 364 725
e 364 653
e 364 677
e 365 614
e 365 383
e 366 648
e 366 876
e 366 510
e 366 419
e 367 840
e 367 935
e 368 898
e 368 377
e 368 411
e 368 733
e 368 745
e 369 720
e 369 606
e 369 836
e 370 896
e 370 376
e 371 967
e 371 771
e 372 398
e 372 426
e 373 927
e 373 702
e 373 560
e 373 447
e 373 890
e 374 775
e 374 720
e 374 929
e 375 782
e 375 539
e 375 780
e 376 973
e 376 757
e 376 490
e 376 907
e 377 922
e 377 515
e 377 539
e 377 891
e 379 790
e 379 709
e 381 825
e 381 473
e 383 756
e 383 393
e 384 406
e 384 606
e 385 669
e 385 832
e 385 943
e 385 409
e 386 709
e 386 444
e 386 992
e 389 861
e 389 680
e 391 916
e 391 401
e 391 796
e 391 454
e 392 703
e 392 786
e 392 451
e 393 793
e 393 778
e 393 456
e 393 625
e 393 755
e 394 689
e 394 777
e 394 636
e 397 486
e 397 686
e 398 562
e 398 439
e 399 450
e 399 462
e 400 666
e 400 779
e 401 708
e 401 780
e 401 562
e 401 616
e 402 954
e 403 770
e 405 732
e 405 884
e 405 697
e 405 850
e 406 937
e 406 408
e 406 528
e 406 418
e 407 530
e 407 779
e 408 782
e 408 902
e 409 484
e 409 707
e 410 966
e 410 618
e 410 689
e 410 777
e 410 559
e 410 456
e 411 916
e 411 464
e 411 558
e 412 752
e 412 930
e 412 506
e 412 750
e 413 869
e 413 967
e 413 855
e 413 521
e 413 560
e 413 832
e 414 577
e 414 958
e 414 834
e 415 877
e 418 567
e 418 447
e 418 712
e 419 591
e 419 798
e 421 836
e 425 475
e 425 886
e 426 995
e 426 566
e 426 838
e 427 623
e 427 790
e 427 511
e 427 945
e 428 694
e 428 783
e 429 712
e 429 758
e 431 616
e 431 519
e 431 566
e 431 547
e 432 945
e 432 812
e 432 585
e 432 613
e 433 605
e 433 558
e 433 776
e 436 587
e 437 927
e 437 754
e 438 765
e 438 754
e 438 846
e 438 821
e 438 465
e 438 981
e 439 745
e 439 534
e 439 713
e 439 932
e 440 737
e 440 531
e 441 925
e 441 922
e 442 956
e 442 923
e 442 534
e 443 566
e 443 759
e 443 985
e 443 687
e 443 586
e 444 688
e 444 905
e 447 907
e 449 768
e 449 934
e 450 786
e 451 946
e 451 652
e 452 459
e 453 783
e 453 778
e 454 884
e 455 899
e 456 913
e 457 523
e 457 514
e 457 658
e 457 925
e 458 772
e 458 814
e 458 699
e 460 920
e 460 902
e 460 843
e 461 520
e 462 471
e 463 804
e 463 974
e 463 828
e 464 512
e 464 946
e 464 612
e 464 958
e 464 675
e 464 480
e 465 911
e 465 797
e 465 861
e 467 716
e 467 760
e 467 572
e 468 644
e 468 666
e 468 817
e 469 555
e 470 803
e 470 689
e 470 949
e 471 497
e 471 996
e 472 861
e 472 548
e 473 901
e 473 689
e 473 518
e 473 476
e 476 616
e 476 591
e 476 978
e 477 510
e 477 532
e 477 936
e 477 842
e 477 649
e 478 929
e 479 881
e 479 656
e 479 599
e 480 534
e 480 950
e 481 729
e 481 679
e 481 882
e 481 605
e 484 533
e 484 805
e 484 754
e 484 562
e 484 731
e 485 729
e 485 896
e 485 752
e 485 732
e 486 849
e 486 674
e 486 986
e 486 687
e 486 951
e 487 718
e 490 878
e 491 550
e 491 908
e 491 854
e 492 967
e 492 588
e 492 751
e 493 612
e 493 597
e 493 691
e 495 568
e 497 686
e 500 911
e 500 504
e 500 594
e 500 856
e 501 854
e 501 657
e 501 515
e 504 542
e 504 512
e 504 656
e 504 808
e 506 740
e 506 899
e 506 855
e 506 866
e 508 982
e 508 975
e 508 754
e 510 750
e 510 789
e 511 892
e 511 897
e 511 964
e 512 730
e 512 823
e 512 575
e 513 840
e 513 605
e 517 663
e 517 570
e 518 998
e 518 916
e 519 795
e 519 576
e 520 854
e 521 757
e 521 963
e 523 688
e 524 800
e 524 530
e 527 837
e 528 651
e 528 950
e 528 838
e 528 989
e 528 759
e 530 886
e 530 801
e 530 805
e 531 952
e 531 614
e 532 586
e 532 843
e 534 771
e 535 821
e 535 794
e 538 889
e 538 684
e 538 866
e 538 942
e 538 731
e 539 749
e 539 834
e 541 542
e 541 776
e 542 803
e 542 738
e 545 710
e 545 876
e 545 712
e 547 850
e 547 767
e 547 908
e 548 703
e 548 700
e 549 804
e 549 876
e 549 874
e 549 797
e 550 686
e 550 900
e 550 731
e 551 625
e 551 713
e 551 695
e 553 667
e 553 973
e 554 680
e 554 629
e 555 795
e 555 938
e 555 778
e 558 611
e 558 909
e 559 772
e 560 821
e 560 998
e 561 657
e 562 612
e 565 699
e 565 729
e 565 690
e 566 938
e 566 765
e 566 685
e 567 689
e 567 592
e 568 778
e 568 653
e 568 794
e 568 713
e 569 913
e 569 572
e 569 982
e 570 851
e 571 698
e 571 642
e 572 612
e 573 925
e 573 809
e 573 974
e 574 642
e 574 971
e 575 922
e 575 827
e 576 932
e 577 927
e 577 714
e 578 963
e 578 919
e 578 773
e 578 667
e 579 653
e 579 677
e 579 592
e 580 766
e 580 710
e 580 920
e 581 710
e 581 919
e 582 884
e 582 606
e 582 797
e 583 602
e 583 778
e 583 806
e 586 985
e 587 771
e 587 615
e 589 685
e 589 997
e 589 878
e 589 812
e 591 793
e 593 888
e 593 689
e 593 801
e 594 955
e 594 1000
e 594 819
e 596 748
e 597 674
e 598 641
e 598 825
e 599 721
e 599 986
e 600 625
e 600 756
e 600 973
e 600 817
e 600 919
e 601 910
e 601 938
e 607 619
e 607 782
e 607 686
e 612 872
e 612 846
e 612 978
e 613 777
e 613 943
e 613 782
e 614 800
e 614 902
e 615 620
e 616 711
e 617 624
e 617 722
e 617 767
e 618 657
e 618 835
e 618 712
e 618 991
e 618 960
e 618 930
e 619 678
e 619 624
e 619 755
e 620 902
e 620 991
e 623 859
e 623 822
e 623 803
e 624 722
e 626 824
e 628 922
e 629 827
e 629 685
e 630 957
e 631 847
e 631 722
e 632 801
e 632 847
e 632 877
e 636 639
e 639 710
e 639 716
e 639 898
e 639 684
e 639 825
e 639 991
e 641 834
e 641 884
e 642 889
e 642 963
e 643 766
e 644 913
e 645 751
e 645 700
e 648 883
e 649 934
e 650 999
e 650 708
e 651 825
e 651 863
e 652 923
e 653 883
e 653 859
e 653 976
e 653 916
e 656 879
e 656 859
e 656 775
e 658 877
e 658 850
e 658 825
e 658 687
e 659 903
e 661 816
e 661 833
e 663 669
e 663 730
e 663 976
e 665 918
e 665 778
e 666 916
e 666 725
e 667 798
e 669 796
e 671 711
e 672 899
e 672 738
e 673 911
e 673 687
e 674 736
e 675 676
e 676 705
e 676 977
e 677 883
e 678 709
e 678 772
e 679 984
e 679 907
e 680 992
e 682 872
e 682 1000
e 684 837
e 684 929
e 685 852
e 687 964
e 688 762
e 689 834
e 691 919
e 691 700
e 694 977
e 695 869
e 695 748
e 695 795
e 697 998
e 698 900
e 700 763
e 700 888
e 702 775
e 702 881
e 703 924
e 703 905
e 703 886
e 705 986
e 706 765
e 707 712
e 707 956
e 708 807
e 709 856
e 712 827
e 712 948
e 713 816
e 714 779
e 714 897
e 714 730
e 716 920
e 718 936
e 718 751
e 720 978
e 722 856
e 729 879
e 729 769
e 729 907
e 731 932
e 731 743
e 731 955
e 734 925
e 734 770
e 740 951
e 741 934
e 742 956
e 742 977
e 742 841
e 743 948
e 744 879
e 745 828
e 749 808
e 752 814
e 754 933
e 754 808
e 754 907
e 754 863
e 754 784
e 756 784
e 758 762
e 758 995
e 760 888
e 760 933
e 761 838
e 761 999
e 762 882
e 763 929
e 766 850
e 767 909
e 767 960
e 768 822
e 769 905
e 770 869
e 771 877
e 772 825
e 773 881
e 775 822
e 776 902
e 776 872
e 778 978
e 780 834
e 780 996
e 780 835
e 781 911
e 781 945
e 782 997
e 782 986
e 782 852
e 786 955
e 786 882
e 786 925
e 788 824
e 788 833
e 789 989
e 794 909
e 794 849
e 795 798
e 796 884
e 797 930
e 797 923
e 798 957
e 798 892
e 799 892
e 800 892
e 801 896
e 804 890
e 804 998
e 805 949
e 806 963
e 807 816
e 807 812
e 807 935
e 808 814
e 808 962
e 808 909
e 817 978
e 819 833
e 820 884
e 820 842
e 821 837
e 823 1000
e 824 854
e 826 997
e 826 959
e 827 880
e 828 877
e 832 957
e 834 967
e 834 991
e 836 960
e 837 909
e 838 856
e 838 874
e 840 975
e 846 903
e 849 955
e 849 964
e 850 881
e 851 989
e 854 936
e 855 951
e 864 935
e 866 951
e 866 924
e 877 976
e 878 985
e 881 946
e 881 988
e 883 919
e 884 947
e 884 931
e 886 952
e 891 910
e 896 922
e 900 963
e 903 956
e 905 922
e 910 964
e 923 938
e 925 981
e 925 980
e 925 977
e 937 992
e 943 988
e 945 958
e 947 982
e 948 976
e 949 999
e 951 957
e 960 978
e 960 985
e 971 976
e 986 988
e 989 998
e 996 999
