txt_Ins/graph-1000-615.txt
n 1000
e 0 172
e 0 601
e 0 55
e 0 18
e 1 106
e 1 411
e 1 578
e 2 698
e 2 316
e 2 743
e 2 152
e 2 20
e 2 932
e 2 640
e 2 716
e 3 519
e 3 905
e 3 383
e 3 303
e 3 534
e 3 537
e 3 698
e 3 804
e 4 658
e 4 970
e 4 267
e 4 957
e 4 622
e 5 11
e 5 131
e 5 880
e 5 889
e 5 451
e 6 172
e 6 497
e 6 743
e 6 279
e 7 64
e 7 883
e 7 442
e 7 414
e 7 14
e 8 518
e 8 526
e 8 890
e 8 776
e 8 979
e 9 332
e 9 494
e 9 778
e 9 557
e 9 122
e 10 341
e 10 244
e 10 187
e 11 991
e 11 549
e 11 998
e 11 95
e 11 328
e 11 84
e 11 788
e 11 282
e 12 918
e 12 458
e 12 55
e 12 898
e 12 169
e 12 945
e 13 770
e 13 117
e 13 310
e 13 374
e 14 335
e 14 437
e 15 907
e 15 477
e 15 579
e 15 711
e 16 744
e 16 319
e 16 75
e 16 888
e 16 671
e 16 218
e 16 450
e 17 268
e 17 579
e 17 137
e 17 220
e 17 944
e 17 261
e 17 675
e 18 307
e 18 930
e 20 818
e 20 564
e 20 308
e 22 590
e 22 503
e 22 935
e 23 569
e 23 871
e 23 575
e 23 552
e 23 464
e 24 907
e 24 699
e 24 776
e 25 96
e 25 754
e 25 435
e 25 115
e 25 578
e 26 65
e 26 170
e 26 948
e 26 203
e 26 265
e 26 755
e 27 325
e 27 382
e 27 324
e 27 569
e 27 209
e 27 247
e 28 436
e 28 530
e 28 601
e 28 294
e 30 523
e 30 133
e 30 888
e 30 253
e 30 709
e 31 76
e 31 733
e 31 378
e 31 587
e 31 370
e 31 842
e 31 509
e 32 523
e 32 497
e 32 532
e 32 440
e 32 549
e 32 981
e 32 340
e 35 788
e 35 336
e 35 759
e 35 977
e 35 432
e 36 833
e 36 455
e 36 961
e 37 204
e 37 730
e 37 720
e 37 522
e 37 600
e 37 254
e 38 955
e 38 384
e 38 139
e 39 840
e 39 232
e 39 395
e 40 538
e 40 760
e 40 694
e 40 665
e 40 88
e 40 285
e 43 305
e 43 834
e 43 709
e 43 822
e 43 300
e 46 178
e 46 290
e 46 628
e 46 625
e 46 871
e 46 883
e 48 469
e 48 974
e 48 420
e 48 898
e 48 341
e 49 820
e 49 732
e 49 348
e 49 463
e 49 378
e 49 342
e 50 424
e 50 576
e 50 497
e 50 454
e 50 391
e 50 848
e 50 89
e 51 336
e 51 131
e 51 277
e 51 460
e 51 906
e 52 480
e 52 948
e 52 613
e 53 165
e 53 693
e 53 270
e 53 523
e 55 164
e 55 624
e 56 247
e 56 840
e 56 577
e 57 643
e 57 154
e 57 330
e 57 560
e 59 706
e 59 235
e 59 793
e 60 643
e 60 368
e 60 143
e 60 642
e 60 503
e 60 234
e 60 459
e 60 268
e 60 590
e 61 720
e 61 123
e 61 742
e 61 932
e 62 751
e 62 909
e 62 265
e 62 544
e 63 202
e 63 478
e 63 303
e 64 655
e 64 962
e 64 311
e 65 897
e 65 332
e 65 365
e 65 742
e 65 108
e 65 944
e 66 778
e 66 489
e 66 452
e 66 457
e 66 673
e 66 219
e 67 380
e 67 972
e 67 741
e 67 630
e 67 336
e 67 128
e 68 716
e 68 872
e 68 777
e 68 733
e 69 314
e 69 815
e 69 325
e 69 102
e 70 395
e 70 915
e 70 558
e 70 656
e 71 928
e 71 148
e 71 930
e 74 102
e 74 936
e 74 987
e 74 350
e 74 388
e 74 144
e 74 980
e 75 363
e 75 438
e 75 161
e 75 578
e 75 807
e 76 371
e 76 790
e 76 841
e 76 696
e 76 660
e 77 798
e 77 944
e 77 650
e 80 854
e 80 586
e 80 849
e 83 210
e 83 655
e 83 731
e 83 751
e 83 569
e 83 471
e 83 303
e 84 526
e 84 407
e 84 984
e 85 684
e 85 764
e 85 187
e 85 720
e 85 395
e 88 706
e 88 326
e 88 757
e 88 251
e 88 954
e 88 792
e 89 99
e 89 402
e 89 885
e 89 388
e 93 790
e 93 808
e 93 249
e 93 954
e 93 765
e 93 796
e 94 322
e 94 595
e 94 865
e 95 239
e 95 376
e 95 716
e 95 291
e 95 198
e 96 896
e 96 612
e 96 616
e 96 311
e 97 741
e 97 781
e 97 469
e 97 900
e 97 991
e 97 266
e 99 559
e 99 855
e 100 959
e 100 385
e 100 350
e 100 862
e 102 177
e 102 783
e 102 618
e 102 717
e 103 529
e 103 128
e 103 883
e 105 854
e 105 554
e 105 382
e 106 206
e 106 172
e 106 937
e 106 316
e 106 135
e 107 902
e 107 930
e 107 674
e 108 596
e 108 771
e 108 448
e 109 464
e 109 392
e 109 772
e 109 709
e 109 656
e 110 678
e 110 811
e 110 649
e 111 953
e 111 365
e 111 406
e 111 769
e 113 364
e 113 291
e 113 996
e 113 173
e 114 715
e 114 117
e 114 210
e 114 512
e 115 363
e 115 739
e 115 730
e 115 453
e 116 851
e 116 629
e 116 760
e 116 277
e 116 670
e 117 871
e 117 891
e 117 122
e 117 541
e 117 954
e 118 619
e 118 924
e 118 282
e 121 431
e 121 193
e 121 618
e 122 648
e 123 776
e 123 807
e 126 384
e 126 448
e 126 327
e 126 581
e 127 219
e 127 932
e 127 825
e 127 363
e 128 529
e 128 565
e 129 905
e 129 910
e 129 518
e 129 220
e 129 393
e 129 192
e 129 280
e 129 558
e 129 841
e 131 819
e 131 999
e 131 499
e 132 451
e 132 974
e 132 688
e 132 297
e 132 240
e 133 393
e 133 346
e 133 560
e 133 291
e 134 889
e 134 172
e 134 457
e 135 446
e 135 412
e 135 836
e 136 808
e 136 523
e 136 614
e 137 684
e 137 721
e 137 572
e 137 868
e 138 284
e 138 164
e 138 650
e 138 533
e 138 302
e 138 435
e 138 882
e 138 496
e 139 698
e 139 748
e 139 145
e 139 302
e 139 513
e 140 539
e 140 803
e 140 388
e 143 526
e 143 600
e 144 932
e 144 409
e 144 991
e 145 601
e 145 762
e 145 406
e 145 402
e 146 486
e 146 179
e 146 363
e 146 881
e 146 951
e 147 459
e 147 711
e 147 591
e 147 663
e 148 544
e 148 708
e 150 407
e 150 424
e 150 919
e 150 188
e 150 517
e 151 356
e 151 932
e 151 811
e 152 698
e 152 533
e 154 269
e 154 721
e 156 530
e 156 250
e 156 460
e 156 185
e 159 747
e 159 449
e 159 599
e 159 819
e 160 575
e 160 199
e 160 558
e 160 251
e 160 516
e 161 954
e 161 397
e 161 789
e 161 872
e 161 756
e 161 272
e 161 631
e 162 863
e 162 966
e 162 336
e 164 881
e 164 217
e 164 380
e 164 235
e 164 711
e 164 402
e 164 596
e 164 987
e 165 537
e 165 875
e 167 206
e 167 663
e 167 259
e 167 265
e 168 737
e 168 170
e 168 956
e 169 311
e 169 559
e 169 356
e 169 587
e 169 625
e 169 509
e 169 595
e 170 312
e 170 871
e 170 948
e 170 699
e 171 179
e 171 259
e 171 815
e 172 696
e 172 899
e 173 208
e 173 887
e 173 821
e 173 687
e 173 885
e 175 440
e 175 977
e 175 941
e 176 596
e 176 293
e 176 266
e 176 664
e 177 304
e 177 671
e 177 946
e 178 615
e 178 696
e 178 310
e 179 908
e 179 315
e 179 715
e 181 670
e 181 781
e 181 663
e 182 945
e 182 225
e 182 862
e 182 413
e 183 302
e 183 426
e 183 730
e 185 821
e 185 758
e 186 398
e 186 769
e 186 194
e 186 805
e 186 841
e 187 889
e 187 736
e 187 523
e 187 709
e 188 220
e 188 678
e 189 230
e 189 468
e 189 570
e 189 326
e 189 313
e 189 610
e 189 458
e 189 678
e 189 334
e 189 912
e 190 787
e 190 635
e 190 705
e 190 234
e 191 853
e 191 279
e 191 386
e 191 850
e 191 605
e 191 404
e 192 357
e 192 386
e 192 461
e 192 949
e 192 627
e 192 302
e 193 324
e 193 314
e 193 917
e 193 928
e 193 216
e 193 388
e 193 198
e 194 793
e 194 261
e 194 245
e 194 931
e 195 239
e 195 310
e 195 549
e 195 760
e 195 888
e 195 837
e 196 605
e 196 693
e 196 820
e 198 223
e 198 269
e 198 364
e 199 401
e 199 400
e 199 296
e 199 554
e 200 994
e 200 705
e 200 785
e 201 410
e 201 687
e 201 709
e 201 900
e 201 368
e 202 336
e 202 505
e 202 644
e 202 341
e 202 228
e 202 443
e 203 904
e 203 699
e 204 958
e 204 513
e 206 753
e 206 476
e 206 773
e 207 463
e 207 366
e 207 931
e 207 604
e 207 374
e 208 410
e 208 764
e 208 436
e 209 619
e 209 467
e 209 689
e 209 629
e 210 650
e 210 296
e 210 560
e 213 399
e 213 794
e 213 278
e 213 443
e 214 310
e 214 798
e 214 973
e 214 539
e 214 624
e 214 804
e 216 792
e 216 941
e 217 346
e 217 564
e 218 519
e 218 885
e 218 383
e 219 684
e 219 879
e 219 435
e 219 374
e 220 890
e 220 673
e 222 628
e 222 983
e 222 369
e 223 537
e 223 455
e 225 577
e 225 724
e 226 534
e 226 997
e 226 849
e 226 865
e 226 531
e 228 477
e 228 432
e 228 824
e 228 882
e 229 831
e 229 401
e 229 666
e 230 983
e 230 432
e 230 326
e 230 716
e 232 319
e 232 410
e 232 668
e 232 799
e 232 303
e 233 794
e 233 585
e 233 958
e 234 378
e 234 262
e 234 260
e 235 910
e 235 519
e 235 616
e 235 895
e 239 367
e 239 780
e 239 439
e 239 775
e 239 724
e 239 848
e 239 658
e 239 520
e 240 736
e 240 953
e 240 733
e 240 468
e 240 777
e 240 907
e 240 662
e 240 405
e 241 900
e 241 921
e 241 710
e 242 537
e 242 930
e 242 303
e 243 514
e 243 454
e 243 768
e 243 625
e 243 716
e 244 286
e 244 544
e 244 629
e 244 469
e 245 926
e 245 280
e 245 701
e 245 259
e 247 435
e 247 262
e 248 697
e 248 882
e 248 941
e 249 820
e 249 642
e 249 300
e 249 540
e 249 660
e 249 693
e 249 674
e 250 795
e 250 372
e 250 882
e 250 477
e 250 854
e 251 928
e 251 813
e 251 973
e 251 546
e 253 933
e 253 650
e 253 477
e 253 254
e 254 269
e 254 815
e 254 956
e 254 522
e 256 307
e 256 443
e 256 657
e 256 552
e 256 790
e 256 643
e 257 839
e 257 813
e 257 845
e 257 947
e 257 687
e 257 750
e 257 735
e 259 397
e 259 985
e 259 709
e 259 917
e 259 420
e 260 681
e 260 742
e 260 980
e 260 469
e 261 352
e 261 796
e 261 471
e 261 336
e 262 375
e 264 815
e 264 335
e 264 566
e 265 846
e 266 276
e 266 333
e 266 793
e 266 851
e 267 926
e 267 668
e 267 672
e 268 427
e 268 402
e 269 531
e 270 300
e 270 879
e 270 595
e 270 613
e 270 538
e 270 315
e 270 457
e 270 534
e 270 689
e 270 942
e 270 664
e 272 326
e 272 744
e 272 668
e 274 762
e 274 995
e 274 934
e 276 428
e 276 808
e 277 805
e 277 836
e 277 872
e 278 837
e 278 933
e 279 997
e 279 735
e 279 858
e 279 919
e 279 696
e 279 912
e 279 980
e 279 357
e 279 477
e 280 396
e 280 284
e 281 523
e 281 655
e 281 553
e 282 532
e 282 976
e 282 474
e 282 756
e 283 362
e 283 411
e 283 455
e 283 658
e 284 597
e 285 576
e 285 590
e 286 822
e 286 509
e 287 584
e 287 873
e 287 436
e 290 975
e 290 937
e 290 338
e 291 840
e 293 360
e 293 834
e 293 694
e 294 539
e 294 863
e 296 804
e 296 356
e 296 853
e 297 850
e 297 453
e 297 998
e 298 351
e 298 740
e 298 330
e 298 467
e 300 642
e 300 773
e 302 754
e 302 541
e 302 979
e 302 983
e 302 803
e 303 922
e 303 614
e 304 409
e 304 548
e 304 855
e 305 494
e 305 749
e 305 635
e 305 868
e 306 767
e 306 382
e 306 819
e 306 477
e 307 848
e 307 505
e 307 699
e 308 965
e 308 720
e 308 414
e 308 998
e 310 895
e 311 735
e 311 486
e 311 640
e 312 627
e 312 942
e 312 354
e 312 386
e 312 782
e 312 612
e 313 606
e 313 900
e 313 477
e 313 757
e 314 863
e 314 962
e 314 704
e 314 973
e 314 517
e 314 655
e 315 622
e 315 505
e 315 399
e 316 647
e 316 855
e 317 879
e 317 518
e 317 678
e 317 647
e 319 819
e 319 907
e 319 896
e 320 409
e 320 732
e 320 475
e 322 595
e 322 398
e 322 328
e 323 613
e 323 617
e 323 959
e 324 885
e 325 961
e 325 740
e 325 907
e 326 435
e 326 678
e 326 359
e 326 665
e 327 923
e 327 701
e 327 854
e 327 678
e 327 432
e 328 741
e 330 721
e 332 837
e 332 490
e 332 573
e 333 922
e 333 539
e 334 617
e 334 991
e 335 617
e 335 590
e 336 432
e 336 724
e 336 574
e 336 624
e 336 584
e 336 351
e 338 570
e 338 580
e 338 601
e 338 890
e 340 375
e 340 797
e 340 697
e 340 906
e 340 958
e 341 651
e 341 458
e 342 837
e 342 803
e 342 575
e 342 910
e 344 561
e 344 905
e 344 901
e 344 774
e 345 772
e 345 622
e 345 906
e 345 405
e 346 710
e 348 878
e 348 362
e 348 681
e 350 533
e 350 773
e 350 891
e 351 368
e 351 972
e 351 397
e 352 576
e 352 431
e 354 610
e 354 474
e 356 483
e 356 599
e 357 708
e 357 698
e 357 500
e 359 606
e 359 397
e 360 437
e 360 921
e 361 755
e 361 825
e 361 762
e 361 942
e 362 965
e 363 724
e 363 652
e 363 676
e 364 613
e 364 382
e 365 647
e 365 875
e 365 509
e 365 418
e 366 839
e 366 934
e 367 897
e 367 376
e 367 410
e 367 732
e 367 744
e 368 719
e 368 605
e 368 835
e 369 895
e 369 375
e 370 966
e 370 770
e 371 397
e 371 425
e 372 926
e 372 701
e 372 559
e 372 446
e 372 889
e 373 774
e 373 719
e 373 928
e 374 781
e 374 538
e 374 779
e 375 972
e 375 756
e 375 489
e 375 906
e 376 921
e 376 514
e 376 538
e 376 890
e 378 789
e 378 708
e 380 824
e 380 472
e 382 755
e 382 392
e 383 405
e 383 605
e 384 668
e 384 831
e 384 942
e 384 408
e 385 708
e 385 443
e 385 991
e 388 860
e 388 679
e 390 915
e 390 400
e 390 795
e 390 453
e 391 702
e 391 785
e 391 450
e 392 792
e 392 777
e 392 455
e 392 624
e 392 754
e 393 688
e 393 776
e 393 635
e 396 485
e 396 685
e 397 561
e 397 438
e 398 449
e 398 461
e 399 665
e 399 778
e 400 707
e 400 779
e 400 561
e 400 615
e 401 953
e 402 769
e 404 731
e 404 883
e 404 696
e 404 849
e 405 936
e 405 407
e 405 527
e 405 417
e 406 529
e 406 778
e 407 781
e 407 901
e 408 483
e 408 706
e 409 965
e 409 617
e 409 688
e 409 776
e 409 558
e 409 455
e 410 915
e 410 463
e 410 557
e 411 751
e 411 929
e 411 505
e 411 749
e 412 868
e 412 966
e 412 854
e 412 520
e 412 559
e 412 831
e 413 576
e 413 957
e 413 833
e 414 876
e 417 566
e 417 446
e 417 711
e 418 590
e 418 797
e 420 835
e 424 474
e 424 885
e 425 994
e 425 565
e 425 837
e 426 622
e 426 789
e 426 510
e 426 944
e 427 693
e 427 782
e 428 711
e 428 757
e 430 615
e 430 518
e 430 565
e 430 546
e 431 944
e 431 811
e 431 584
e 431 612
e 432 604
e 432 557
e 432 775
e 435 586
e 436 926
e 436 753
e 437 764
e 437 753
e 437 845
e 437 820
e 437 464
e 437 980
e 438 744
e 438 533
e 438 712
e 438 931
e 439 736
e 439 530
e 440 924
e 440 921
e 441 955
e 441 922
e 441 533
e 442 565
e 442 758
e 442 984
e 442 686
e 442 585
e 443 687
e 443 904
e 446 906
e 448 767
e 448 933
e 449 785
e 450 945
e 450 651
e 451 458
e 452 782
e 452 777
e 453 883
e 454 898
e 455 912
e 456 522
e 456 513
e 456 657
e 456 924
e 457 771
e 457 813
e 457 698
e 459 919
e 459 901
e 459 842
e 460 519
e 461 470
e 462 803
e 462 973
e 462 827
e 463 511
e 463 945
e 463 611
e 463 957
e 463 674
e 463 479
e 464 910
e 464 796
e 464 860
e 466 715
e 466 759
e 466 571
e 467 643
e 467 665
e 467 816
e 468 554
e 469 802
e 469 688
e 469 948
e 470 496
e 470 995
e 471 860
e 471 547
e 472 900
e 472 688
e 472 517
e 472 475
e 475 615
e 475 590
e 475 977
e 476 509
e 476 531
e 476 935
e 476 841
e 476 648
e 477 928
e 478 880
e 478 655
e 478 598
e 479 533
e 479 949
e 480 728
e 480 678
e 480 881
e 480 604
e 483 532
e 483 804
e 483 753
e 483 561
e 483 730
e 484 728
e 484 895
e 484 751
e 484 731
e 485 848
e 485 673
e 485 985
e 485 686
e 485 950
e 486 717
e 489 877
e 490 549
e 490 907
e 490 853
e 491 966
e 491 587
e 491 750
e 492 611
e 492 596
e 492 690
e 494 567
e 496 685
e 499 910
e 499 503
e 499 593
e 499 855
e 500 853
e 500 656
e 500 514
e 503 541
e 503 511
e 503 655
e 503 807
e 505 739
e 505 898
e 505 854
e 505 865
e 507 981
e 507 974
e 507 753
e 509 749
e 509 788
e 510 891
e 510 896
e 510 963
e 511 729
e 511 822
e 511 574
e 512 839
e 512 604
e 516 662
e 516 569
e 517 997
e 517 915
e 518 794
e 518 575
e 519 853
e 520 756
e 520 962
e 522 687
e 523 799
e 523 529
e 526 836
e 527 650
e 527 949
e 527 837
e 527 988
e 527 758
e 529 885
e 529 800
e 529 804
e 530 951
e 530 613
e 531 585
e 531 842
e 533 770
e 534 820
e 534 793
e 537 888
e 537 683
e 537 865
e 537 941
e 537 730
e 538 748
e 538 833
e 540 541
e 540 775
e 541 802
e 541 737
e 544 709
e 544 875
e 544 711
e 546 849
e 546 766
e 546 907
e 547 702
e 547 699
e 548 803
e 548 875
e 548 873
e 548 796
e 549 685
e 549 899
e 549 730
e 550 624
e 550 712
e 550 694
e 552 666
e 552 972
e 553 679
e 553 628
e 554 794
e 554 937
e 554 777
e 557 610
e 557 908
e 558 771
e 559 820
e 559 997
e 560 656
e 561 611
e 564 698
e 564 728
e 564 689
e 565 937
e 565 764
e 565 684
e 566 688
e 566 591
e 567 777
e 567 652
e 567 793
e 567 712
e 568 912
e 568 571
e 568 981
e 569 850
e 570 697
e 570 641
e 571 611
e 572 924
e 572 808
e 572 973
e 573 641
e 573 970
e 574 921
e 574 826
e 575 931
e 576 926
e 576 713
e 577 962
e 577 918
e 577 772
e 577 666
e 578 652
e 578 676
e 578 591
e 579 765
e 579 709
e 579 919
e 580 709
e 580 918
e 581 883
e 581 605
e 581 796
e 582 601
e 582 777
e 582 805
e 585 984
e 586 770
e 586 614
e 588 684
e 588 996
e 588 877
e 588 811
e 590 792
e 592 887
e 592 688
e 592 800
e 593 954
e 593 999
e 593 818
e 595 747
e 596 673
e 597 640
e 597 824
e 598 720
e 598 985
e 599 624
e 599 755
e 599 972
e 599 816
e 599 918
e 600 909
e 600 937
e 606 618
e 606 781
e 606 685
e 611 871
e 611 845
e 611 977
e 612 776
e 612 942
e 612 781
e 613 799
e 613 901
e 614 619
e 615 710
e 616 623
e 616 721
e 616 766
e 617 656
e 617 834
e 617 711
e 617 990
e 617 959
e 617 929
e 618 677
e 618 623
e 618 754
e 619 901
e 619 990
e 622 858
e 622 821
e 622 802
e 623 721
e 625 823
e 627 921
e 628 826
e 628 684
e 629 956
e 630 846
e 630 721
e 631 800
e 631 846
e 631 876
e 635 638
e 638 709
e 638 715
e 638 897
e 638 683
e 638 824
e 638 990
e 640 833
e 640 883
e 641 888
e 641 962
e 642 765
e 643 912
e 644 750
e 644 699
e 647 882
e 648 933
e 649 998
e 649 707
e 650 824
e 650 862
e 651 922
e 652 882
e 652 858
e 652 975
e 652 915
e 655 878
e 655 858
e 655 774
e 657 876
e 657 849
e 657 824
e 657 686
e 658 902
e 660 815
e 660 832
e 662 668
e 662 729
e 662 975
e 664 917
e 664 777
e 665 915
e 665 724
e 666 797
e 668 795
e 670 710
e 671 898
e 671 737
e 672 910
e 672 686
e 673 735
e 674 675
e 675 704
e 675 976
e 676 882
e 677 708
e 677 771
e 678 983
e 678 906
e 679 991
e 681 871
e 681 999
e 683 836
e 683 928
e 684 851
e 686 963
e 687 761
e 688 833
e 690 918
e 690 699
e 693 976
e 694 868
e 694 747
e 694 794
e 696 997
e 697 899
e 699 762
e 699 887
e 701 774
e 701 880
e 702 923
e 702 904
e 702 885
e 704 985
e 705 764
e 706 711
e 706 955
e 707 806
e 708 855
e 711 826
e 711 947
e 712 815
e 713 778
e 713 896
e 713 729
e 715 919
e 717 935
e 717 750
e 719 977
e 721 855
e 728 878
e 728 768
e 728 906
e 730 931
e 730 742
e 730 954
e 733 924
e 733 769
e 739 950
e 740 933
e 741 955
e 741 976
e 741 840
e 742 947
e 743 878
e 744 827
e 748 807
e 751 813
e 753 932
e 753 807
e 753 906
e 753 862
e 753 783
e 755 783
e 757 761
e 757 994
e 759 887
e 759 932
e 760 837
e 760 998
e 761 881
e 762 928
e 765 849
e 766 908
e 766 959
e 767 821
e 768 904
e 769 868
e 770 876
e 771 824
e 772 880
e 774 821
e 775 901
e 775 871
e 777 977
e 779 833
e 779 995
e 779 834
e 780 910
e 780 944
e 781 996
e 781 985
e 781 851
e 785 954
e 785 881
e 785 924
e 787 823
e 787 832
e 788 988
e 793 908
e 793 848
e 794 797
e 795 883
e 796 929
e 796 922
e 797 956
e 797 891
e 798 891
e 799 891
e 800 895
e 803 889
e 803 997
e 804 948
e 805 962
e 806 815
e 806 811
e 806 934
e 807 813
e 807 961
e 807 908
e 816 977
e 818 832
e 819 883
e 819 841
e 820 836
e 822 999
e 823 853
e 825 996
e 825 958
e 826 879
e 827 876
e 831 956
e 833 966
e 833 990
e 835 959
e 836 908
e 837 855
e 837 873
e 839 974
e 845 902
e 848 954
e 848 963
e 849 880
e 850 988
e 853 935
e 854 950
e 863 934
e 865 950
e 865 923
e 876 975
e 877 984
e 880 945
e 880 987
e 882 918
e 883 946
e 883 930
e 885 951
e 890 909
e 895 921
e 899 962
e 902 955
e 904 921
e 909 963
e 922 937
e 924 980
e 924 979
e 924 976
e 936 991
e 942 987
e 944 957
e 946 981
e 947 975
e 948 998
e 950 956
e 959 977
e 959 984
e 970 975
e 985 987
e 988 997
e 995 998
